c Output_time 26.03.2020 18:15:18_+0100 1585242918029057991
c ** Program information **
c program_name                          "QBRG_debug"
c version                               "0.3.20"
c date                                  "25.3.2020"
c gid_id                                "673970833836058123f633335630c185360d632e"
c author                                "Oliver Kullmann"
c url                                   "https://github.com/OKullmann/oklibrary/blob/master/Satisfiability/Transformers/Generators/Random/QBRG.cpp"
c ** Machine information **
c machine_name                          "chyna-Lenovo-G50-70"
c bogomips                              3791.08
c ** Compilation information **
c compiler_version                      "g++ 7.5.0"
c compilation_date                      "Mar_26_2020 11:16:30"
c compilation_options                   "--std=c++17 -pedantic -fmax-errors=5 -Wall -Wextra -g -D_GLIBCXX_DEBUG"
c NDEBUG                                0
c OPTIMIZE                              0
c ** Parameters **
c command-line                          "./QBRG_debug" "a40 e40 a40 40" "384*1,1|2-2,1|3-3,1|4-4,1" "" "1,t" ""
c output                                "QuBlRaGe_160_384_1585242918028886659.qdimacs"
c options                               "filtered,renamed"
c num_quantifier_blocks                 4
c  quantifier_blocks                    1:a1-40 2:e41-80 3:a81-120 4:e121-160
c num_clause-blocks                     1
c  clause-blocks                        384 * {1-40,1,1/2} | {41-80,1,1/2} | {81-120,1,1/2} | {121-160,1,1/2}
c num_e-seeds                           37+2=39
c  e-seeds                              1 0 1 0 5 160 2 40 0 40 1 40 0 40 1 384 4 1 1 1 1 2 2 2 1 1 2 3 3 1 1 2 4 4 1 1 2 1 1585242918028885903
p cnf 160 384
a 1 2 3 4 5 6 7 8 9 10 11 12 13 14 15 16 17 18 19 20 21 22 23 24 25 26 27 28 29 30 31 32 33 34 35 36 37 38 39 40 0
e 41 42 43 44 45 46 47 48 49 50 51 52 53 54 55 56 57 58 59 60 61 62 63 64 65 66 67 68 69 70 71 72 73 74 75 76 77 78 79 80 0
a 81 82 83 84 85 86 87 88 89 90 91 92 93 94 95 96 97 98 99 100 101 102 103 104 105 106 107 108 109 110 111 112 113 114 115 116 117 118 119 120 0
e 121 122 123 124 125 126 127 128 129 130 131 132 133 134 135 136 137 138 139 140 141 142 143 144 145 146 147 148 149 150 151 152 153 154 155 156 157 158 159 160 0
-16 57 -83 -121 0
-19 -63 -85 -121 0
17 -51 -88 -121 0
33 -74 -89 -121 0
39 -43 90 -121 0
-13 59 115 -121 0
-33 -47 -81 121 0
37 -42 -97 121 0
33 -46 -102 121 0
31 -62 103 121 0
-30 46 107 121 0
2 63 -110 121 0
15 48 -120 121 0
7 57 89 -122 0
4 -58 -110 -122 0
21 75 -110 -122 0
-25 -53 -112 -122 0
34 53 119 -122 0
-35 -48 -86 122 0
-1 79 89 122 0
11 -58 -104 122 0
-11 50 -108 122 0
-25 74 83 -123 0
-33 -57 -88 -123 0
-9 -52 -99 -123 0
27 65 -99 -123 0
-14 -48 99 -123 0
-23 -49 -110 -123 0
-38 -77 -109 123 0
26 -76 89 -124 0
32 59 93 -124 0
39 65 98 -124 0
-7 63 109 -124 0
-24 72 -112 -124 0
-21 79 -120 -124 0
-21 42 81 124 0
39 -66 -85 124 0
-19 62 -93 124 0
1 57 93 124 0
19 -50 -101 124 0
2 46 -107 124 0
4 -41 113 124 0
11 -78 90 -125 0
4 70 92 -125 0
27 -73 -98 -125 0
32 51 98 -125 0
21 -77 86 125 0
32 -48 87 125 0
32 -76 93 125 0
5 -43 -97 125 0
21 62 99 125 0
-8 41 -115 125 0
16 -67 116 125 0
24 77 83 -126 0
3 68 -84 -126 0
3 61 -103 -126 0
-30 -52 105 -126 0
38 -58 106 -126 0
28 -53 118 -126 0
-6 61 120 -126 0
-32 52 -107 126 0
-38 48 -115 126 0
-37 54 95 -127 0
8 58 96 -127 0
11 -42 107 -127 0
2 -67 109 -127 0
40 -72 -112 -127 0
36 43 113 -127 0
-11 70 -120 -127 0
38 -41 108 127 0
38 62 111 127 0
28 64 81 -128 0
-5 43 -97 128 0
9 -44 97 128 0
24 63 103 128 0
-40 -64 83 -129 0
-36 58 95 -129 0
-33 -56 81 129 0
15 -74 85 129 0
-30 66 92 129 0
1 -43 -99 129 0
22 75 99 129 0
-19 55 104 129 0
-11 42 105 129 0
-18 -71 106 129 0
-29 76 85 -130 0
20 53 -88 -130 0
-2 72 99 -130 0
-28 -56 -118 -130 0
-36 59 -120 -130 0
32 -51 -97 130 0
-7 72 100 130 0
-17 41 105 130 0
39 -80 106 130 0
-29 64 114 130 0
6 75 -89 -131 0
-3 76 91 -131 0
13 -60 102 -131 0
-36 71 110 -131 0
14 51 -119 -131 0
-17 -66 -120 -131 0
-22 76 88 131 0
36 58 97 131 0
-38 66 101 131 0
30 61 118 131 0
3 59 100 -132 0
16 48 113 -132 0
14 53 114 -132 0
-16 46 115 -132 0
-17 72 84 132 0
-27 76 86 132 0
-36 45 88 132 0
-7 -57 107 132 0
-40 46 100 -133 0
11 -52 -107 -133 0
21 -59 110 -133 0
18 80 111 -133 0
-26 -44 -114 -133 0
3 70 93 133 0
-25 -65 111 133 0
34 74 -113 133 0
-6 -71 -95 -134 0
26 -68 -99 -134 0
2 -67 100 -134 0
-28 67 -108 -134 0
-13 42 120 -134 0
37 -50 106 134 0
-22 -64 107 134 0
-20 -70 -115 134 0
6 -59 -104 -135 0
7 -69 -104 -135 0
-40 -52 107 -135 0
-20 51 110 -135 0
1 -57 110 -135 0
-10 43 -111 -135 0
-3 56 -112 -135 0
26 -66 -88 135 0
-15 56 90 135 0
39 -67 -95 135 0
13 -80 98 135 0
22 -48 -111 135 0
-20 68 -113 135 0
34 -73 83 -136 0
-36 -43 -86 -136 0
26 56 87 -136 0
-2 -65 88 -136 0
37 -70 -103 -136 0
19 78 -102 136 0
32 78 -102 -137 0
-23 67 102 -137 0
3 -48 -110 -137 0
17 -52 83 137 0
-5 -52 -84 137 0
-27 -69 85 137 0
7 77 -86 137 0
13 -49 87 137 0
-28 72 -98 137 0
-20 -74 -99 137 0
8 73 -116 137 0
-12 -51 -89 -138 0
1 75 -105 -138 0
-12 59 -107 -138 0
19 41 -115 -138 0
19 57 -115 -138 0
10 -52 107 138 0
-2 80 -96 -139 0
-9 -51 96 -139 0
34 64 -99 -139 0
-18 68 -109 -139 0
-5 64 115 -139 0
-31 -78 89 139 0
-24 47 -91 139 0
-4 -52 97 139 0
9 -42 104 139 0
15 -41 105 139 0
-39 64 -113 139 0
29 -52 -115 139 0
-19 -61 -81 -140 0
29 -68 84 -140 0
-3 -69 118 -140 0
-20 79 93 140 0
-22 62 99 140 0
32 -80 -101 140 0
-25 45 107 140 0
19 60 107 140 0
8 -80 110 140 0
7 69 -99 -141 0
34 42 -115 -141 0
-34 61 -116 -141 0
-32 -58 -119 -141 0
40 68 82 141 0
-28 -75 88 141 0
-34 55 93 141 0
-17 -52 95 141 0
1 77 102 141 0
28 -67 105 141 0
-11 55 108 141 0
-33 -45 -109 141 0
-20 42 113 141 0
8 -78 114 141 0
-25 -61 -89 -142 0
-8 -69 98 -142 0
-9 70 106 -142 0
-9 57 -108 -142 0
1 58 110 -142 0
-7 80 110 -142 0
16 -70 -81 142 0
-34 -77 92 142 0
13 -55 98 142 0
40 66 -101 142 0
12 -78 104 142 0
10 -78 101 -143 0
1 -77 107 -143 0
38 76 112 -143 0
-40 63 115 -143 0
-38 66 116 -143 0
-4 41 81 143 0
-40 -53 -107 143 0
-13 -71 115 -144 0
-27 48 -81 144 0
22 -77 -93 144 0
-14 47 93 144 0
-29 62 -108 144 0
-5 46 109 144 0
34 77 -113 144 0
-24 54 -117 144 0
19 47 -89 -145 0
23 -60 -111 -145 0
32 -54 112 145 0
27 -57 114 145 0
23 76 83 -146 0
11 -68 -94 146 0
-16 68 -94 146 0
10 50 -95 146 0
8 -44 100 146 0
35 -47 105 146 0
6 -80 90 -147 0
25 70 -101 -147 0
-34 -58 -114 -147 0
33 -78 115 -147 0
36 66 120 -147 0
-36 -64 83 147 0
30 60 92 147 0
9 -68 -96 147 0
23 -55 99 147 0
13 52 -120 147 0
40 -77 87 -148 0
24 78 -90 -148 0
-4 42 92 -148 0
5 -43 -95 -148 0
-40 60 100 -148 0
-23 -49 106 -148 0
31 68 110 -148 0
-23 -49 -116 -148 0
-13 -55 118 -148 0
8 56 81 148 0
36 -45 -101 148 0
-8 74 103 148 0
-33 48 -94 -149 0
10 -76 -97 -149 0
-27 -56 100 -149 0
-20 -51 109 -149 0
29 47 -112 -149 0
-7 -78 -115 -149 0
19 69 115 -149 0
-31 -62 -120 -149 0
-37 75 120 -149 0
23 77 103 149 0
24 60 111 149 0
-10 64 120 149 0
19 58 93 -150 0
-6 49 -94 -150 0
-35 -79 -116 -150 0
33 -51 81 150 0
-39 -69 87 150 0
-18 -77 -90 150 0
-33 47 -92 150 0
38 -63 -94 150 0
-39 55 -96 150 0
-5 72 106 150 0
39 -67 107 150 0
28 52 112 -151 0
31 73 93 151 0
-13 -74 101 151 0
-25 77 104 151 0
-11 66 -112 151 0
8 67 -86 -152 0
12 41 -89 -152 0
33 64 -94 -152 0
36 -60 100 -152 0
-33 -41 -101 -152 0
-21 -72 110 -152 0
-32 75 113 -152 0
31 -73 118 -152 0
25 48 81 152 0
-5 -69 -85 152 0
27 61 -87 152 0
1 -71 103 152 0
13 45 111 152 0
-36 71 113 152 0
-38 -41 -114 152 0
15 -79 -115 152 0
16 -77 -88 -153 0
-19 55 90 -153 0
15 -47 -102 -153 0
19 -43 -103 -153 0
-40 -63 110 -153 0
-34 57 -111 -153 0
-31 67 113 -153 0
11 56 -116 -153 0
-12 -51 -117 -153 0
17 -55 89 153 0
-11 -61 101 153 0
-3 49 -105 153 0
16 -48 108 153 0
23 -66 108 153 0
-24 47 -111 153 0
-28 -47 114 153 0
31 -80 119 153 0
-27 -52 -81 -154 0
40 -75 82 -154 0
22 51 -95 -154 0
24 55 103 -154 0
12 49 -104 -154 0
13 77 112 -154 0
1 -57 97 154 0
22 77 -99 154 0
24 -80 -83 -155 0
-10 68 91 -155 0
36 67 -95 -155 0
-12 42 95 -155 0
-24 72 101 -155 0
8 -44 -105 -155 0
-22 73 -112 -155 0
29 -54 113 -155 0
3 -68 92 155 0
-30 -67 -97 155 0
-35 -71 111 155 0
-8 -78 -117 155 0
-28 -45 84 -156 0
-40 50 95 -156 0
21 50 102 -156 0
-35 47 -109 -156 0
-16 -64 109 -156 0
-2 -74 -95 156 0
11 -56 -101 156 0
-22 -48 102 156 0
-14 46 -110 156 0
-35 -80 -119 156 0
-21 78 120 156 0
-22 -66 -88 -157 0
-2 65 89 -157 0
10 80 98 -157 0
23 71 -113 -157 0
-9 76 81 157 0
13 77 90 157 0
9 75 103 -158 0
26 -52 105 -158 0
22 66 106 -158 0
-35 -70 -110 -158 0
-11 42 -118 -158 0
-18 77 -89 158 0
-4 -79 98 158 0
-10 56 105 158 0
-28 -70 -106 158 0
-36 57 -81 -159 0
-28 -69 -90 -159 0
-36 41 -91 -159 0
37 59 95 -159 0
-31 67 -99 -159 0
-5 61 -102 -159 0
-7 -45 116 -159 0
35 63 -81 159 0
15 69 84 159 0
34 46 93 159 0
33 67 -101 159 0
35 72 -116 159 0
6 -64 -86 -160 0
4 -74 -115 -160 0
-8 79 -90 160 0
21 -76 91 160 0
8 50 93 160 0
-1 67 106 160 0
-33 -63 -108 160 0
